peakDumbCharging = 22200; 
Machine = anon_enum(16); 
machineSpeed = [3700,3700,3700,3700,3700,3700,3700,3700,3700,3700,3700,3700,3700,3700,3700,3700]; 
machineLoad = [3700,3700,3700,3700,3700,3700,3700,3700,3700,3700,3700,3700,3700,3700,3700,3700]; 
Car = anon_enum(27); 
demandCar = [10400,10200,10080,5200,2280,13480,5320,4440,2720,9440,12240,3880,9840,5760,13000,18440,14400,4680,11000,12000,18800,2640,14920,28080,32720,17840,15200]; 
arrivalCar = [73,71,66,65,64,63,63,61,60,59,58,57,56,50,49,46,45,43,40,37,35,28,28,27,26,25,25]; 
departureCar = [77,76,70,67,66,71,67,63,63,63,64,60,61,53,61,62,51,46,48,41,46,31,33,40,48,35,41]; 
